13
0 1 C6H6O
C                    -1.826710340228    -0.449595246946     0.000000000000
H                    -2.881125007597    -0.706857516481     0.000000000000
C                    -1.425184099255     0.890797307236     0.000000000000
H                    -2.170512841311     1.681101844447     0.000000000000
C                    -0.855658743422    -1.453765732197     0.000000000000
H                    -1.151199958854    -2.499069754951     0.000000000000
C                    -0.072025083095     1.230433586404     0.000000000000
H                     0.251292902130     2.266130860585     0.000000000000
C                     0.503219131856    -1.127074848480     0.000000000000
H                     1.256167755390    -1.912479526148     0.000000000000
C                     0.892516670430     0.217125712923     0.000000000000
O                     2.209119998026     0.603991844144     0.000000000000
H                     2.781774960808    -0.174146059195     0.000000000000
