16
0 1 C6H10
C                     1.500057611542    -0.105668957323    -0.024170948709
H                     1.891262958354    -1.126105176948     0.112364184986
H                     2.384956491731     0.534231051751    -0.140942771382
C                     0.697522019571     0.320786008906     1.216591492024
H                     1.244667107024     0.057097852890     2.129448050361
H                     0.589185473384     1.414210065129     1.217051374865
C                    -0.697522019571    -0.320786008906     1.216591492024
H                    -1.244667107024    -0.057097852890     2.129448050361
H                    -0.589185473384    -1.414210065129     1.217051374865
C                    -1.500057611542     0.105668957323    -0.024170948709
H                    -1.891262958354     1.126105176948     0.112364184986
H                    -2.384956491731    -0.534231051751    -0.140942771382
C                    -0.667800999392     0.054309999823    -1.283543341648
H                    -1.198913027989     0.108450289034    -2.232937290075
C                     0.667800999392    -0.054309999823    -1.283543341648
H                     1.198913027989    -0.108450289034    -2.232937290075
