28
0 1 C10H18
C                    -0.226050409741    -0.936635123791     0.625007848244
C                     1.318650142131    -1.023355300406     0.655571187679
H                     1.662886421479    -1.528508062211    -0.258120734067
H                     1.624269853237    -1.657651610038     1.497721151207
C                     1.985938386916     0.348793518372     0.733543531553
H                     3.075396704431     0.244356613972     0.803616514259
H                     1.664119849373     0.874334863918     1.641335168500
C                     1.609126080215     1.169349404010    -0.500194178102
H                     2.206236255282     0.837023102741    -1.365175473624
H                     1.877838546139     2.225307566193    -0.353354823921
C                     0.138680470764     1.085147646741    -0.866940689023
C                    -0.699696945692     0.159278180622    -0.351294015763
C                    -2.176635325604     0.122303970041    -0.704060311076
H                    -2.783797709552    -0.171847438435     0.157865868688
H                    -2.387965271421    -0.606449680454    -1.497928715423
H                    -2.551843348473     1.090707250044    -1.038281411398
C                    -0.761499698805    -2.319621783830     0.182122175434
H                    -0.351682206326    -3.103017635403     0.830660441565
H                    -0.463376815275    -2.546257804259    -0.847818071177
H                    -1.852308034148    -2.382614786477     0.241528157092
C                    -0.755847943621    -0.643475565889     2.052218288869
H                    -0.360248059299     0.298928296478     2.442939879856
H                    -0.463144917192    -1.447394721208     2.738645959288
H                    -1.848169453479    -0.575912186121     2.073786998163
C                    -0.265196312376     2.136684637861    -1.878027866348
H                     0.463377987521     2.163243235489    -2.699250630472
H                    -0.257297289725     3.139089449892    -1.427097221839
H                    -1.248310587130     1.974203082020    -2.321274656772
