27
0 1 C8H18O
C                     3.925719925563    -0.090047207529    -0.249569583962
H                     4.739495755401    -0.828787661563    -0.200861090436
H                     3.958886378076     0.387201944321    -1.241689049736
O                     4.085727944175     0.892930458067     0.780758061274
H                     4.924168242561     1.352987380640     0.651685689781
C                     2.584876079448    -0.786092671219    -0.052350131509
H                     2.573574659351    -1.239011527973     0.948011712049
H                     2.525227223638    -1.612961607988    -0.774108043829
C                     1.371387128960     0.137472379587    -0.220511496682
H                     1.397121732517     0.585785614489    -1.224992099856
H                     1.452719888162     0.967720181963     0.490947047840
C                     0.031582617038    -0.583427104143    -0.022471231777
H                     0.006466406323    -1.030324056384     0.982074874252
H                    -0.040545663541    -1.422361044775    -0.730668858140
C                    -1.188031666535     0.331060910261    -0.198193954650
H                    -1.163136756668     0.778731751761    -1.202553086118
H                    -1.115707851638     1.169090643187     0.510094108238
C                    -2.529929221165    -0.385593608963     0.001898671581
H                    -2.555273040011    -0.834696976358     1.005683377351
H                    -2.603968331017    -1.223008649784    -0.707602381890
C                    -3.749647095525     0.529439059578    -0.170690415947
H                    -3.724483074271     0.979393820612    -1.173006263050
H                    -3.677190465500     1.364747538177     0.539660778233
C                    -5.085892786357    -0.195124517520     0.029308978025
H                    -5.154548893187    -0.628960592399     1.034091761725
H                    -5.204966335709    -1.012573827033    -0.691930579217
H                    -5.934395917150     0.486212183708    -0.097315994985
