24
0 1 C6H12O6
C                     0.886688471062    -1.484703769148    -0.170441471985
H                     1.160129820356    -2.307401241830    -0.838891436781
O                     1.378061417961    -1.721286875585     1.139602512481
H                     1.180657787480    -2.632210264572     1.394675072890
C                    -1.122235307793    -0.364813940980     0.553801260497
H                    -0.839103197866    -0.452284834089     1.611542063515
O                    -0.527423434152    -1.442284290993    -0.202409233968
C                     1.531623898483    -0.171721091953    -0.653662020868
H                     1.319847639999    -0.061376157531    -1.722279944727
O                     2.940352267855    -0.246552717683    -0.545945481078
H                     3.151278279869    -0.504589910837     0.363769899534
C                     0.921197280264     1.032765772597     0.075135766491
H                     1.216138258845     1.004344102966     1.136330521534
O                     1.405160111016     2.218316920761    -0.535970553983
H                     0.949466106097     2.958555340757    -0.109673661087
C                    -0.606960488005     0.969448674835    -0.001022566808
H                    -0.910762913069     1.063945167698    -1.050511045795
O                    -1.105629346334     2.079829773079     0.756575169292
H                    -1.946007178611     2.367955687084     0.378460202619
C                    -2.629851940948    -0.552995570793     0.437464612783
H                    -3.139728776333     0.202161287251     1.041985160245
H                    -2.892750069243    -1.541556199334     0.838683359102
O                    -3.109741178734    -0.397875410646    -0.893752629210
H                    -2.675388176627    -1.065594633801    -1.442956183956
