12
0 1 C6H6
C                     0.426632193191     1.331436445618     0.000000000000
H                     0.757986871294     2.366097460527     0.000000000000
C                     1.366372318279     0.296252773270     0.000000000000
H                     2.428121201578     0.526482955238     0.000000000000
C                    -0.939725139993     1.035156187590     0.000000000000
H                    -1.670099937778     1.839441187060     0.000000000000
C                     0.939725139993    -1.035156187590     0.000000000000
H                     1.670099937778    -1.839441187060     0.000000000000
C                    -1.366372318279    -0.296252773270     0.000000000000
H                    -2.428121201578    -0.526482955238     0.000000000000
C                    -0.426632193191    -1.331436445618     0.000000000000
H                    -0.757986871294    -2.366097460527     0.000000000000
