8
0 1 C2H4O2
C                    -1.460229979983     0.034683318857     0.000000000000
C                     0.055285526169     0.099400672133     0.000000000000
H                    -1.862006479068     1.047403789180     0.000000000000
H                    -1.823884313530    -0.496803642465     0.886763062079
H                    -1.823884313530    -0.496803642465    -0.886763062079
O                     0.700044902232     1.117903800044     0.000000000000
O                     0.697130106056    -1.106049696196     0.000000000000
H                     0.064026742188    -1.838444844301     0.000000000000
