8
0 1 C2H4O2
C                    -1.423851039051    -0.334141164600     0.000000000000
C                     0.016168021649     0.105420700236     0.000000000000
H                    -2.071970040037     0.541348874859     0.000000000000
H                    -1.624521714621    -0.950271398657    -0.881817099486
H                    -1.624521714621    -0.950271398657     0.881817099486
O                     0.413915190829     1.251010387570     0.000000000000
O                     0.865946630846    -0.956140976576     0.000000000000
H                     1.769718116167    -0.597262225529     0.000000000000
