9
0 1 C2H6O
C                     0.153379852214     0.556346732250     0.000000000000
O                     0.999547969075    -0.598261721561     0.000000000000
H                     1.922803072466    -0.316155118190     0.000000000000
H                     0.348364315454     1.174455650704     0.889282125827
H                     0.348364315454     1.174455650704    -0.889282125827
C                    -1.289193658290     0.080338351505     0.000000000000
H                    -1.972963859298     0.936240257187     0.000000000000
H                    -1.493089530748    -0.527524494714     0.886908782602
H                    -1.493089530748    -0.527524494714    -0.886908782602
