15
0 1 C5H10
C                    -0.818197598794    -1.037781104383     0.000000000000
H                    -1.225584822926    -1.554477803315     0.875592327270
H                    -1.225584822926    -1.554477803315    -0.875592327270
C                     0.734140591327    -1.098852848234     0.000000000000
H                     1.099672577004    -1.645977168365    -0.875574793739
H                     1.099672577004    -1.645977168365     0.875574793739
C                     1.271968839889     0.358649313770     0.000000000000
H                     1.905250656431     0.537216521628    -0.875589961974
H                     1.905250656431     0.537216521628     0.875589961974
C                     0.051942497583     1.320528877619     0.000000000000
H                     0.077820629739     1.977998935817    -0.875586269315
H                     0.077820629739     1.977998935817     0.875586269315
C                    -1.239854317407     0.457458855792     0.000000000000
H                    -1.857159115253     0.685221091008     0.875580777891
H                    -1.857159115253     0.685221091008    -0.875580777891
