11
0 1 C3H8
H                    -2.176330775028     0.000000000000    -0.359048291719
H                    -1.323963981010     0.884365659069     0.915837425657
H                    -1.323963981010    -0.884365659069     0.915837425657
C                    -1.278459378957     0.000000000000     0.268845178287
C                     0.000000000000     0.000000000000    -0.577237469222
H                     0.000000000000     0.877565493082    -1.237186212013
H                     0.000000000000    -0.877565493082    -1.237186212013
H                     2.176330775028     0.000000000000    -0.359048291719
H                     1.323963981010    -0.884365659069     0.915837425657
H                     1.323963981010     0.884365659069     0.915837425657
C                     1.278459378957     0.000000000000     0.268845178287
